18,8	0,0	5,5	19,6	0,0	0,0	0,0	0,0	0,0	5,5
18,7	10,0	0,0	18,5	9,5	0,0	0,0	5,2	0,0	0,0
0,0	0,0	8,1	0,0	14,0	14,2	0,0	0,0	5,1	0,0
11,1	0,0	16,5	0,0	0,0	0,0	9,5	0,0	0,0	0,0
0,0	18,2	0,0	6,3	17,0	0,0	0,0	5,8	0,0	0,0
0,0	11,7	10,0	0,0	9,8	10,5	0,0	0,0	14,8	0,0
0,0	16,3	0,0	9,8	0,0	0,0	13,8	0,0	0,0	16,1
17,1	0,0	9,4	0,0	0,0	0,0	0,0	0,0	0,0	15,8
0,0	19,8	0,0	13,6	12,0	0,0	0,0	7,5	0,0	0,0
0,0	0,0	14,4	0,0	0,0	7,8	17,9	0,0	0,0	14,1
0,0	18,0	0,0	0,0	18,2	0,0	10,5	0,0	19,8	18,2
11,9	0,0	11,4	0,0	16,8	0,0	9,3	11,3	18,7	0,0
0,0	10,2	0,0	0,0	0,0	7,3	0,0	5,3	14,8	10,9
17,8	15,4	15,3	0,0	0,0	16,4	0,0	17,9	10,2	0,0
17,1	0,0	5,3	0,0	14,7	14,0	10,3	6,3	0,0	0,0
0,0	11,4	0,0	19,2	0,0	12,0	0,0	13,2	0,0	0,0
19,2	0,0	9,9	19,8	9,9	0,0	0,0	15,6	0,0	0,0
0,0	0,0	17,4	0,0	0,0	15,7	19,0	0,0	16,0	15,6
12,4	0,0	0,0	17,6	13,1	15,6	18,2	20,0	0,0	17,9
0,0	7,1	0,0	17,3	0,0	0,0	18,4	0,0	6,6	12,1
									
3,0	3,9	4,1	5,0	3,0	4,3	3,9	3,4	4,6	3,9
